n=30;
demand=2;
horizon=30;
est=[16,3,17,25,11,1,23,0,19,21,21,6,6,6,14,0,0,15,12,15,18,5,18,15,20,12,24,11,21,21];
processing_time=[6,23,10,4,3,27,1,12,2,9,9,3,22,12,10,2,30,14,9,4,1,24,3,5,3,18,2,11,1,2];
lct=[30,28,30,30,25,29,27,17,21,30,30,27,30,28,29,28,30,29,23,25,30,29,25,22,23,30,28,27,23,30];
